product_mix.lp
\* ProductMix *\
Maximize
OBJ: 25 Bookcases + 16 Chairs + 30 Desks
Subject To
Bookcases_Cutting: 0.4 Bookcases + 0.4 Chairs + 0.8 Desks = 100
Bookcases_Finishing: 3 Bookcases + 3 Chairs + 5 Desks = 650
Bookcases_Storing: 1.1 Bookcases + 0.7 Chairs + Desks = 140
End
